p cnf 7230 17
-1904 -2610 3257 0
2610 -3257 0
-1910 -2238 -3262 0
-1908 -2604 -3260 0
-1906 -2222 -3258 0
1910 -3263 0
1908 -3261 0
1906 -3259 0
3262 3263 0
3260 3261 0
3258 3259 0
2238 -3263 0
2604 -3261 0
2222 -3259 0
2624 -3265 0
3256 3257 0
-3256 -3257 0
